(set-info :original "/tmp/sea-5QopFL/eureka_05_true-unreach-call_true-termination.pp.ms.o.bc")
(set-info :authors "SeaHorn v.0.1.0-rc3")
(declare-rel verifier.error (Bool Bool Bool ))
(declare-rel SelectionSort@_1 (Int (Array Int Int) Int (Array Int Int) ))
(declare-rel SelectionSort@_shadow.mem1.0 (Int (Array Int Int) Int (Array Int Int) Int (Array Int Int) ))
(declare-rel SelectionSort@_call9 (Int (Array Int Int) (Array Int Int) Int (Array Int Int) ))
(declare-rel SelectionSort (Bool Bool Bool (Array Int Int) (Array Int Int) (Array Int Int) (Array Int Int) Int Int ))
(declare-rel SelectionSort@_i.0.in (Int (Array Int Int) Int Int Int (Array Int Int) Int (Array Int Int) ))
(declare-rel __VERIFIER_assert@_1 ((Array Int Int) (Array Int Int) Int ))
(declare-rel __VERIFIER_assert@_call3 ((Array Int Int) (Array Int Int) Int ))
(declare-rel __VERIFIER_assert (Bool Bool Bool (Array Int Int) (Array Int Int) (Array Int Int) (Array Int Int) Int ))
(declare-rel main@entry ((Array Int Int) (Array Int Int) ))
(declare-rel main@_bb (Int Int Int Int (Array Int Int) (Array Int Int) (Array Int Int) ))
(declare-rel main@_bb5 (Int (Array Int Int) (Array Int Int) (Array Int Int) Int ))
(declare-rel main@verifier.error.split ())
(declare-var SelectionSort@%_call3_0 Int )
(declare-var SelectionSort@%_12_0 Int )
(declare-var SelectionSort@%_call4_0 Int )
(declare-var SelectionSort@%_14_0 Int )
(declare-var SelectionSort@%_i.0.rh.0_0 Bool )
(declare-var SelectionSort@%_call5_0 Int )
(declare-var SelectionSort@%_18_0 Int )
(declare-var SelectionSort@%_call6_0 Int )
(declare-var SelectionSort@%_20_0 Int )
(declare-var SelectionSort@%_21_0 Int )
(declare-var SelectionSort@%_store_0 (Array Int Int) )
(declare-var SelectionSort@%_23_0 Int )
(declare-var SelectionSort@%_8_0 Int )
(declare-var SelectionSort@%_br2_0 Bool )
(declare-var SelectionSort@%_5_0 Int )
(declare-var SelectionSort@%_br_0 Bool )
(declare-var SelectionSort@%i.0.in_2 Int )
(declare-var SelectionSort@%_call_0 (Array Int Int) )
(declare-var SelectionSort@%shadow.mem1.0_0 (Array Int Int) )
(declare-var SelectionSort@%_2_0 (Array Int Int) )
(declare-var @array_0 Int )
(declare-var @n_0 Int )
(declare-var SelectionSort@_1_0 Bool )
(declare-var SelectionSort@_shadow.mem1.0_0 Bool )
(declare-var SelectionSort@%lh.0_0 Int )
(declare-var SelectionSort@%shadow.mem1.0_1 (Array Int Int) )
(declare-var SelectionSort@%lh.0_1 Int )
(declare-var SelectionSort@_call9_0 Bool )
(declare-var SelectionSort@_i.0.in_0 Bool )
(declare-var SelectionSort@%i.0.in_0 Int )
(declare-var SelectionSort@%rh.0_0 Int )
(declare-var SelectionSort@%i.0.in_1 Int )
(declare-var SelectionSort@%rh.0_1 Int )
(declare-var SelectionSort@%i.0_0 Int )
(declare-var SelectionSort@_16_0 Bool )
(declare-var SelectionSort@%_store7_0 (Array Int Int) )
(declare-var SelectionSort@%_br8_0 Int )
(declare-var SelectionSort@%shadow.mem1.0_2 (Array Int Int) )
(declare-var SelectionSort@%lh.0_2 Int )
(declare-var SelectionSort@_10_0 Bool )
(declare-var SelectionSort@%i.0.rh.0_0 Int )
(declare-var SelectionSort@_i.0.in_1 Bool )
(declare-var SelectionSort@%rh.0_2 Int )
(declare-var __VERIFIER_assert@%_call_0 (Array Int Int) )
(declare-var __VERIFIER_assert@%_2_0 (Array Int Int) )
(declare-var __VERIFIER_assert@%_call2_0 Bool )
(declare-var __VERIFIER_assert@%cond_0 Int )
(declare-var __VERIFIER_assert@_1_0 Bool )
(declare-var __VERIFIER_assert@_call3_0 Bool )
(declare-var main@%_7_0 Int )
(declare-var main@%_24_0 Bool )
(declare-var main@%_16_0 Int )
(declare-var main@%_17_0 Int )
(declare-var main@%_18_0 Bool )
(declare-var main@%_20_0 Bool )
(declare-var main@%_14_0 Bool )
(declare-var main@%_2_0 (Array Int Int) )
(declare-var main@%shadow.mem2.0_2 (Array Int Int) )
(declare-var main@%shadow.mem1.0_2 (Array Int Int) )
(declare-var main@%_5_0 Bool )
(declare-var main@%_1_0 (Array Int Int) )
(declare-var main@entry_0 Bool )
(declare-var main@%_0_0 (Array Int Int) )
(declare-var main@%array.i_0 Int )
(declare-var main@%_3_0 (Array Int Int) )
(declare-var main@_bb_0 Bool )
(declare-var main@%shadow.mem.0_0 (Array Int Int) )
(declare-var main@%i.0.i_0 Int )
(declare-var main@%shadow.mem.0_1 (Array Int Int) )
(declare-var main@%i.0.i_1 Int )
(declare-var main@_bb3_0 Bool )
(declare-var main@%_8_0 (Array Int Int) )
(declare-var main@%_9_0 Int )
(declare-var main@_bb_1 Bool )
(declare-var main@%shadow.mem.0_2 (Array Int Int) )
(declare-var main@%i.0.i_2 Int )
(declare-var main@_bb4_0 Bool )
(declare-var main@%_11_0 (Array Int Int) )
(declare-var main@%_12_0 (Array Int Int) )
(declare-var main@_bb5_0 Bool )
(declare-var main@%shadow.mem2.0_0 (Array Int Int) )
(declare-var main@%shadow.mem1.0_0 (Array Int Int) )
(declare-var main@%i.1.i_0 Int )
(declare-var main@%shadow.mem2.0_1 (Array Int Int) )
(declare-var main@%shadow.mem1.0_1 (Array Int Int) )
(declare-var main@%i.1.i_1 Int )
(declare-var main@_bb6_0 Bool )
(declare-var main@%_19_0 Int )
(declare-var main@postcall_0 Bool )
(declare-var main@%_21_0 (Array Int Int) )
(declare-var main@%_22_0 (Array Int Int) )
(declare-var main@%_23_0 Int )
(declare-var main@_bb5_1 Bool )
(declare-var main@%i.1.i_2 Int )
(declare-var main@precall_0 Bool )
(declare-var main@__VERIFIER_assert_0 Bool )
(declare-var main@_bb7_0 Bool )
(declare-var main@verifier.error_0 Bool )
(declare-var main@verifier.error.split_0 Bool )
(rule (verifier.error false false false))
(rule (verifier.error false true true))
(rule (verifier.error true false true))
(rule (verifier.error true true true))
(rule (SelectionSort true
               true
               true
               SelectionSort@%_call_0
               SelectionSort@%shadow.mem1.0_0
               SelectionSort@%_2_0
               SelectionSort@%_2_0
               @array_0
               @n_0))
(rule (SelectionSort false
               true
               true
               SelectionSort@%_call_0
               SelectionSort@%shadow.mem1.0_0
               SelectionSort@%_2_0
               SelectionSort@%_2_0
               @array_0
               @n_0))
(rule (SelectionSort false
               false
               false
               SelectionSort@%_call_0
               SelectionSort@%shadow.mem1.0_0
               SelectionSort@%_2_0
               SelectionSort@%_2_0
               @array_0
               @n_0))
(rule (SelectionSort@_1 @array_0 SelectionSort@%_2_0 @n_0 SelectionSort@%_call_0))
(rule (=> (and (SelectionSort@_1 @array_0
                           SelectionSort@%_2_0
                           @n_0
                           SelectionSort@%_call_0)
         true
         (=> SelectionSort@_shadow.mem1.0_0
             (and SelectionSort@_shadow.mem1.0_0 SelectionSort@_1_0))
         SelectionSort@_shadow.mem1.0_0
         (=> (and SelectionSort@_shadow.mem1.0_0 SelectionSort@_1_0)
             (= SelectionSort@%shadow.mem1.0_0 SelectionSort@%_call_0))
         (=> (and SelectionSort@_shadow.mem1.0_0 SelectionSort@_1_0)
             (= SelectionSort@%lh.0_0 0))
         (=> (and SelectionSort@_shadow.mem1.0_0 SelectionSort@_1_0)
             (= SelectionSort@%shadow.mem1.0_1 SelectionSort@%shadow.mem1.0_0))
         (=> (and SelectionSort@_shadow.mem1.0_0 SelectionSort@_1_0)
             (= SelectionSort@%lh.0_1 SelectionSort@%lh.0_0)))
    (SelectionSort@_shadow.mem1.0
      @array_0
      SelectionSort@%shadow.mem1.0_1
      SelectionSort@%lh.0_1
      SelectionSort@%_2_0
      @n_0
      SelectionSort@%_call_0)))
(rule (=> (and (SelectionSort@_shadow.mem1.0
           @array_0
           SelectionSort@%shadow.mem1.0_0
           SelectionSort@%lh.0_0
           SelectionSort@%_2_0
           @n_0
           SelectionSort@%_call_0)
         true
         (= SelectionSort@%_5_0 (select SelectionSort@%_2_0 @n_0))
         (= SelectionSort@%_br_0 (< SelectionSort@%lh.0_0 SelectionSort@%_5_0))
         (=> SelectionSort@_call9_0
             (and SelectionSort@_call9_0 SelectionSort@_shadow.mem1.0_0))
         SelectionSort@_call9_0
         (=> (and SelectionSort@_call9_0 SelectionSort@_shadow.mem1.0_0)
             (not SelectionSort@%_br_0)))
    (SelectionSort@_call9
      @array_0
      SelectionSort@%shadow.mem1.0_0
      SelectionSort@%_2_0
      @n_0
      SelectionSort@%_call_0)))
(rule (=> (and (SelectionSort@_shadow.mem1.0
           @array_0
           SelectionSort@%shadow.mem1.0_0
           SelectionSort@%lh.0_0
           SelectionSort@%_2_0
           @n_0
           SelectionSort@%_call_0)
         true
         (= SelectionSort@%_5_0 (select SelectionSort@%_2_0 @n_0))
         (= SelectionSort@%_br_0 (< SelectionSort@%lh.0_0 SelectionSort@%_5_0))
         (=> SelectionSort@_i.0.in_0
             (and SelectionSort@_i.0.in_0 SelectionSort@_shadow.mem1.0_0))
         SelectionSort@_i.0.in_0
         (=> (and SelectionSort@_i.0.in_0 SelectionSort@_shadow.mem1.0_0)
             SelectionSort@%_br_0)
         (=> (and SelectionSort@_i.0.in_0 SelectionSort@_shadow.mem1.0_0)
             (= SelectionSort@%i.0.in_0 SelectionSort@%lh.0_0))
         (=> (and SelectionSort@_i.0.in_0 SelectionSort@_shadow.mem1.0_0)
             (= SelectionSort@%rh.0_0 SelectionSort@%lh.0_0))
         (=> (and SelectionSort@_i.0.in_0 SelectionSort@_shadow.mem1.0_0)
             (= SelectionSort@%i.0.in_1 SelectionSort@%i.0.in_0))
         (=> (and SelectionSort@_i.0.in_0 SelectionSort@_shadow.mem1.0_0)
             (= SelectionSort@%rh.0_1 SelectionSort@%rh.0_0)))
    (SelectionSort@_i.0.in
      @array_0
      SelectionSort@%shadow.mem1.0_0
      SelectionSort@%rh.0_1
      SelectionSort@%i.0.in_1
      SelectionSort@%lh.0_0
      SelectionSort@%_2_0
      @n_0
      SelectionSort@%_call_0)))
(rule (let ((a!1 (= SelectionSort@%_call5_0
              (+ (+ @array_0 (* 0 20)) (* SelectionSort@%lh.0_0 4))))
      (a!2 (= SelectionSort@%_call6_0
              (+ (+ @array_0 (* 0 20)) (* SelectionSort@%rh.0_0 4))))
      (a!3 (= SelectionSort@%_21_0
              (+ (+ @array_0 (* 0 20)) (* SelectionSort@%lh.0_0 4))))
      (a!4 (= SelectionSort@%_23_0
              (+ (+ @array_0 (* 0 20)) (* SelectionSort@%rh.0_0 4)))))
(let ((a!5 (and (SelectionSort@_i.0.in
                  @array_0
                  SelectionSort@%shadow.mem1.0_0
                  SelectionSort@%rh.0_0
                  SelectionSort@%i.0.in_0
                  SelectionSort@%lh.0_0
                  SelectionSort@%_2_0
                  @n_0
                  SelectionSort@%_call_0)
                true
                (= SelectionSort@%i.0_0 (+ SelectionSort@%i.0.in_0 1))
                (= SelectionSort@%_8_0 (select SelectionSort@%_2_0 @n_0))
                (= SelectionSort@%_br2_0
                   (< SelectionSort@%i.0_0 SelectionSort@%_8_0))
                (=> SelectionSort@_16_0
                    (and SelectionSort@_16_0 SelectionSort@_i.0.in_0))
                (=> (and SelectionSort@_16_0 SelectionSort@_i.0.in_0)
                    (not SelectionSort@%_br2_0))
                (=> SelectionSort@_16_0 a!1)
                (=> SelectionSort@_16_0
                    (or (<= @array_0 0) (> SelectionSort@%_call5_0 0)))
                (=> SelectionSort@_16_0 (> @array_0 0))
                (=> SelectionSort@_16_0
                    (= SelectionSort@%_18_0
                       (select SelectionSort@%shadow.mem1.0_0
                               SelectionSort@%_call5_0)))
                (=> SelectionSort@_16_0 a!2)
                (=> SelectionSort@_16_0
                    (or (<= @array_0 0) (> SelectionSort@%_call6_0 0)))
                (=> SelectionSort@_16_0 (> @array_0 0))
                (=> SelectionSort@_16_0
                    (= SelectionSort@%_20_0
                       (select SelectionSort@%shadow.mem1.0_0
                               SelectionSort@%_call6_0)))
                (=> SelectionSort@_16_0 a!3)
                (=> SelectionSort@_16_0
                    (or (<= @array_0 0) (> SelectionSort@%_21_0 0)))
                (=> SelectionSort@_16_0 (> @array_0 0))
                (=> SelectionSort@_16_0
                    (= SelectionSort@%_store_0
                       (store SelectionSort@%shadow.mem1.0_0
                              SelectionSort@%_21_0
                              SelectionSort@%_20_0)))
                (=> SelectionSort@_16_0 a!4)
                (=> SelectionSort@_16_0
                    (or (<= @array_0 0) (> SelectionSort@%_23_0 0)))
                (=> SelectionSort@_16_0 (> @array_0 0))
                (=> SelectionSort@_16_0
                    (= SelectionSort@%_store7_0
                       (store SelectionSort@%_store_0
                              SelectionSort@%_23_0
                              SelectionSort@%_18_0)))
                (=> SelectionSort@_16_0
                    (= SelectionSort@%_br8_0 (+ SelectionSort@%lh.0_0 1)))
                (=> SelectionSort@_shadow.mem1.0_0
                    (and SelectionSort@_shadow.mem1.0_0 SelectionSort@_16_0))
                SelectionSort@_shadow.mem1.0_0
                (=> (and SelectionSort@_shadow.mem1.0_0 SelectionSort@_16_0)
                    (= SelectionSort@%shadow.mem1.0_1 SelectionSort@%_store7_0))
                (=> (and SelectionSort@_shadow.mem1.0_0 SelectionSort@_16_0)
                    (= SelectionSort@%lh.0_1 SelectionSort@%_br8_0))
                (=> (and SelectionSort@_shadow.mem1.0_0 SelectionSort@_16_0)
                    (= SelectionSort@%shadow.mem1.0_2
                       SelectionSort@%shadow.mem1.0_1))
                (=> (and SelectionSort@_shadow.mem1.0_0 SelectionSort@_16_0)
                    (= SelectionSort@%lh.0_2 SelectionSort@%lh.0_1)))))
  (=> a!5
      (SelectionSort@_shadow.mem1.0
        @array_0
        SelectionSort@%shadow.mem1.0_2
        SelectionSort@%lh.0_2
        SelectionSort@%_2_0
        @n_0
        SelectionSort@%_call_0)))))
(rule (let ((a!1 (= SelectionSort@%_call3_0
              (+ (+ @array_0 (* 0 20)) (* SelectionSort@%i.0_0 4))))
      (a!2 (= SelectionSort@%_call4_0
              (+ (+ @array_0 (* 0 20)) (* SelectionSort@%rh.0_0 4)))))
(let ((a!3 (and (SelectionSort@_i.0.in
                  @array_0
                  SelectionSort@%shadow.mem1.0_0
                  SelectionSort@%rh.0_0
                  SelectionSort@%i.0.in_0
                  SelectionSort@%lh.0_0
                  SelectionSort@%_2_0
                  @n_0
                  SelectionSort@%_call_0)
                true
                (= SelectionSort@%i.0_0 (+ SelectionSort@%i.0.in_0 1))
                (= SelectionSort@%_8_0 (select SelectionSort@%_2_0 @n_0))
                (= SelectionSort@%_br2_0
                   (< SelectionSort@%i.0_0 SelectionSort@%_8_0))
                (=> SelectionSort@_10_0
                    (and SelectionSort@_10_0 SelectionSort@_i.0.in_0))
                (=> (and SelectionSort@_10_0 SelectionSort@_i.0.in_0)
                    SelectionSort@%_br2_0)
                (=> SelectionSort@_10_0 a!1)
                (=> SelectionSort@_10_0
                    (or (<= @array_0 0) (> SelectionSort@%_call3_0 0)))
                (=> SelectionSort@_10_0 (> @array_0 0))
                (=> SelectionSort@_10_0
                    (= SelectionSort@%_12_0
                       (select SelectionSort@%shadow.mem1.0_0
                               SelectionSort@%_call3_0)))
                (=> SelectionSort@_10_0 a!2)
                (=> SelectionSort@_10_0
                    (or (<= @array_0 0) (> SelectionSort@%_call4_0 0)))
                (=> SelectionSort@_10_0 (> @array_0 0))
                (=> SelectionSort@_10_0
                    (= SelectionSort@%_14_0
                       (select SelectionSort@%shadow.mem1.0_0
                               SelectionSort@%_call4_0)))
                (=> SelectionSort@_10_0
                    (= SelectionSort@%_i.0.rh.0_0
                       (< SelectionSort@%_12_0 SelectionSort@%_14_0)))
                (=> SelectionSort@_10_0
                    (= SelectionSort@%i.0.rh.0_0
                       (ite SelectionSort@%_i.0.rh.0_0
                            SelectionSort@%i.0_0
                            SelectionSort@%rh.0_0)))
                (=> SelectionSort@_i.0.in_1
                    (and SelectionSort@_i.0.in_1 SelectionSort@_10_0))
                SelectionSort@_i.0.in_1
                (=> (and SelectionSort@_i.0.in_1 SelectionSort@_10_0)
                    (= SelectionSort@%i.0.in_1 SelectionSort@%i.0_0))
                (=> (and SelectionSort@_i.0.in_1 SelectionSort@_10_0)
                    (= SelectionSort@%rh.0_1 SelectionSort@%i.0.rh.0_0))
                (=> (and SelectionSort@_i.0.in_1 SelectionSort@_10_0)
                    (= SelectionSort@%i.0.in_2 SelectionSort@%i.0.in_1))
                (=> (and SelectionSort@_i.0.in_1 SelectionSort@_10_0)
                    (= SelectionSort@%rh.0_2 SelectionSort@%rh.0_1)))))
  (=> a!3
      (SelectionSort@_i.0.in
        @array_0
        SelectionSort@%shadow.mem1.0_0
        SelectionSort@%rh.0_2
        SelectionSort@%i.0.in_2
        SelectionSort@%lh.0_0
        SelectionSort@%_2_0
        @n_0
        SelectionSort@%_call_0)))))
(rule (=> (SelectionSort@_call9
      @array_0
      SelectionSort@%shadow.mem1.0_0
      SelectionSort@%_2_0
      @n_0
      SelectionSort@%_call_0)
    (SelectionSort true
                   false
                   false
                   SelectionSort@%_call_0
                   SelectionSort@%shadow.mem1.0_0
                   SelectionSort@%_2_0
                   SelectionSort@%_2_0
                   @array_0
                   @n_0)))
(rule (__VERIFIER_assert
  true
  true
  true
  __VERIFIER_assert@%_call_0
  __VERIFIER_assert@%_call_0
  __VERIFIER_assert@%_2_0
  __VERIFIER_assert@%_2_0
  __VERIFIER_assert@%cond_0))
(rule (__VERIFIER_assert
  false
  true
  true
  __VERIFIER_assert@%_call_0
  __VERIFIER_assert@%_call_0
  __VERIFIER_assert@%_2_0
  __VERIFIER_assert@%_2_0
  __VERIFIER_assert@%cond_0))
(rule (__VERIFIER_assert
  false
  false
  false
  __VERIFIER_assert@%_call_0
  __VERIFIER_assert@%_call_0
  __VERIFIER_assert@%_2_0
  __VERIFIER_assert@%_2_0
  __VERIFIER_assert@%cond_0))
(rule (__VERIFIER_assert@_1
  __VERIFIER_assert@%_call_0
  __VERIFIER_assert@%_2_0
  __VERIFIER_assert@%cond_0))
(rule (=> (and (__VERIFIER_assert@_1
           __VERIFIER_assert@%_call_0
           __VERIFIER_assert@%_2_0
           __VERIFIER_assert@%cond_0)
         true
         (= __VERIFIER_assert@%_call2_0 (= __VERIFIER_assert@%cond_0 0))
         (not __VERIFIER_assert@%_call2_0)
         (=> __VERIFIER_assert@_call3_0
             (and __VERIFIER_assert@_call3_0 __VERIFIER_assert@_1_0))
         __VERIFIER_assert@_call3_0)
    (__VERIFIER_assert@_call3
      __VERIFIER_assert@%_call_0
      __VERIFIER_assert@%_2_0
      __VERIFIER_assert@%cond_0)))
(rule (=> (__VERIFIER_assert@_call3
      __VERIFIER_assert@%_call_0
      __VERIFIER_assert@%_2_0
      __VERIFIER_assert@%cond_0)
    (__VERIFIER_assert
      true
      false
      false
      __VERIFIER_assert@%_call_0
      __VERIFIER_assert@%_call_0
      __VERIFIER_assert@%_2_0
      __VERIFIER_assert@%_2_0
      __VERIFIER_assert@%cond_0)))
(rule (main@entry main@%_2_0 main@%_1_0))
(rule (=> (and (main@entry main@%_2_0 main@%_1_0)
         true
         (> main@%array.i_0 0)
         (= main@%_3_0 (store main@%_1_0 @n_0 5))
         (=> main@_bb_0 (and main@_bb_0 main@entry_0))
         main@_bb_0
         (=> (and main@_bb_0 main@entry_0) (= main@%shadow.mem.0_0 main@%_0_0))
         (=> (and main@_bb_0 main@entry_0) (= main@%i.0.i_0 4))
         (=> (and main@_bb_0 main@entry_0)
             (= main@%shadow.mem.0_1 main@%shadow.mem.0_0))
         (=> (and main@_bb_0 main@entry_0) (= main@%i.0.i_1 main@%i.0.i_0)))
    (main@_bb @array_0
              @n_0
              main@%array.i_0
              main@%i.0.i_1
              main@%shadow.mem.0_1
              main@%_2_0
              main@%_3_0)))
(rule (let ((a!1 (=> main@_bb3_0
               (= main@%_7_0 (+ main@%array.i_0 (* 0 20) (* main@%i.0.i_0 4))))))
(let ((a!2 (and (main@_bb @array_0
                          @n_0
                          main@%array.i_0
                          main@%i.0.i_0
                          main@%shadow.mem.0_0
                          main@%_2_0
                          main@%_3_0)
                true
                (= main@%_5_0 (> main@%i.0.i_0 (- 1)))
                (=> main@_bb3_0 (and main@_bb3_0 main@_bb_0))
                (=> (and main@_bb3_0 main@_bb_0) main@%_5_0)
                a!1
                (=> main@_bb3_0 (or (<= main@%array.i_0 0) (> main@%_7_0 0)))
                (=> main@_bb3_0 (> main@%array.i_0 0))
                (=> main@_bb3_0
                    (= main@%_8_0
                       (store main@%shadow.mem.0_0 main@%_7_0 main@%i.0.i_0)))
                (=> main@_bb3_0 (= main@%_9_0 (+ main@%i.0.i_0 (- 1))))
                (=> main@_bb_1 (and main@_bb_1 main@_bb3_0))
                main@_bb_1
                (=> (and main@_bb_1 main@_bb3_0)
                    (= main@%shadow.mem.0_1 main@%_8_0))
                (=> (and main@_bb_1 main@_bb3_0) (= main@%i.0.i_1 main@%_9_0))
                (=> (and main@_bb_1 main@_bb3_0)
                    (= main@%shadow.mem.0_2 main@%shadow.mem.0_1))
                (=> (and main@_bb_1 main@_bb3_0)
                    (= main@%i.0.i_2 main@%i.0.i_1)))))
  (=> a!2
      (main@_bb @array_0
                @n_0
                main@%array.i_0
                main@%i.0.i_2
                main@%shadow.mem.0_2
                main@%_2_0
                main@%_3_0)))))
(rule (=> (and (main@_bb @array_0
                   @n_0
                   main@%array.i_0
                   main@%i.0.i_0
                   main@%shadow.mem.0_0
                   main@%_2_0
                   main@%_3_0)
         true
         (= main@%_5_0 (> main@%i.0.i_0 (- 1)))
         (=> main@_bb4_0 (and main@_bb4_0 main@_bb_0))
         (=> (and main@_bb4_0 main@_bb_0) (not main@%_5_0))
         (SelectionSort main@_bb4_0
                        false
                        false
                        main@%_2_0
                        main@%_11_0
                        main@%_3_0
                        main@%_12_0
                        @array_0
                        @n_0)
         (=> main@_bb5_0 (and main@_bb5_0 main@_bb4_0))
         main@_bb5_0
         (=> (and main@_bb5_0 main@_bb4_0)
             (= main@%shadow.mem2.0_0 main@%_11_0))
         (=> (and main@_bb5_0 main@_bb4_0)
             (= main@%shadow.mem1.0_0 main@%_12_0))
         (=> (and main@_bb5_0 main@_bb4_0) (= main@%i.1.i_0 0))
         (=> (and main@_bb5_0 main@_bb4_0)
             (= main@%shadow.mem2.0_1 main@%shadow.mem2.0_0))
         (=> (and main@_bb5_0 main@_bb4_0)
             (= main@%shadow.mem1.0_1 main@%shadow.mem1.0_0))
         (=> (and main@_bb5_0 main@_bb4_0) (= main@%i.1.i_1 main@%i.1.i_0)))
    (main@_bb5 main@%array.i_0
               main@%shadow.mem.0_0
               main@%shadow.mem2.0_1
               main@%shadow.mem1.0_1
               main@%i.1.i_1)))
(rule (let ((a!1 (=> main@_bb6_0
               (= main@%_16_0 (+ main@%array.i_0 (* 0 20) (* main@%i.1.i_0 4))))))
(let ((a!2 (and (main@_bb5 main@%array.i_0
                           main@%shadow.mem.0_0
                           main@%shadow.mem2.0_0
                           main@%shadow.mem1.0_0
                           main@%i.1.i_0)
                true
                (= main@%_14_0 (< main@%i.1.i_0 5))
                main@%_14_0
                (=> main@_bb6_0 (and main@_bb6_0 main@_bb5_0))
                a!1
                (=> main@_bb6_0 (or (<= main@%array.i_0 0) (> main@%_16_0 0)))
                (=> main@_bb6_0 (> main@%array.i_0 0))
                (=> main@_bb6_0
                    (= main@%_17_0 (select main@%shadow.mem.0_0 main@%_16_0)))
                (=> main@_bb6_0 (= main@%_18_0 (= main@%_17_0 main@%i.1.i_0)))
                (=> main@_bb6_0 (= main@%_19_0 (ite main@%_18_0 1 0)))
                (=> main@postcall_0 (and main@postcall_0 main@_bb6_0))
                (=> (and main@postcall_0 main@_bb6_0) main@%_20_0)
                (__VERIFIER_assert
                  main@postcall_0
                  false
                  false
                  main@%shadow.mem2.0_0
                  main@%_21_0
                  main@%shadow.mem1.0_0
                  main@%_22_0
                  main@%_19_0)
                (=> main@postcall_0 (= main@%_23_0 (+ main@%i.1.i_0 1)))
                (=> main@_bb5_1 (and main@_bb5_1 main@postcall_0))
                main@_bb5_1
                (=> (and main@_bb5_1 main@postcall_0)
                    (= main@%shadow.mem2.0_1 main@%_21_0))
                (=> (and main@_bb5_1 main@postcall_0)
                    (= main@%shadow.mem1.0_1 main@%_22_0))
                (=> (and main@_bb5_1 main@postcall_0)
                    (= main@%i.1.i_1 main@%_23_0))
                (=> (and main@_bb5_1 main@postcall_0)
                    (= main@%shadow.mem2.0_2 main@%shadow.mem2.0_1))
                (=> (and main@_bb5_1 main@postcall_0)
                    (= main@%shadow.mem1.0_2 main@%shadow.mem1.0_1))
                (=> (and main@_bb5_1 main@postcall_0)
                    (= main@%i.1.i_2 main@%i.1.i_1)))))
  (=> a!2
      (main@_bb5 main@%array.i_0
                 main@%shadow.mem.0_0
                 main@%shadow.mem2.0_2
                 main@%shadow.mem1.0_2
                 main@%i.1.i_2)))))
(rule (let ((a!1 (=> main@_bb6_0
               (= main@%_16_0 (+ main@%array.i_0 (* 0 20) (* main@%i.1.i_0 4))))))
(let ((a!2 (and (main@_bb5 main@%array.i_0
                           main@%shadow.mem.0_0
                           main@%shadow.mem2.0_0
                           main@%shadow.mem1.0_0
                           main@%i.1.i_0)
                true
                (= main@%_14_0 (< main@%i.1.i_0 5))
                main@%_14_0
                (=> main@_bb6_0 (and main@_bb6_0 main@_bb5_0))
                a!1
                (=> main@_bb6_0 (or (<= main@%array.i_0 0) (> main@%_16_0 0)))
                (=> main@_bb6_0 (> main@%array.i_0 0))
                (=> main@_bb6_0
                    (= main@%_17_0 (select main@%shadow.mem.0_0 main@%_16_0)))
                (=> main@_bb6_0 (= main@%_18_0 (= main@%_17_0 main@%i.1.i_0)))
                (=> main@_bb6_0 (= main@%_19_0 (ite main@%_18_0 1 0)))
                (=> main@precall_0 (and main@precall_0 main@_bb6_0))
                (=> (and main@precall_0 main@_bb6_0) (not main@%_20_0))
                (=> main@__VERIFIER_assert_0
                    (and main@__VERIFIER_assert_0 main@precall_0))
                (=> main@__VERIFIER_assert_0 (= main@%_24_0 (= main@%_19_0 0)))
                (=> main@__VERIFIER_assert_0 main@%_24_0)
                (=> main@_bb7_0 (and main@_bb7_0 main@__VERIFIER_assert_0))
                (=> main@verifier.error_0
                    (and main@verifier.error_0 main@_bb7_0))
                (=> main@verifier.error.split_0
                    (and main@verifier.error.split_0 main@verifier.error_0))
                main@verifier.error.split_0)))
  (=> a!2 main@verifier.error.split))))
(query main@verifier.error.split)

